NAME 
ROWS
 N  OBJ
 L  R0      
 E  R1      
 E  R2      
 E  R3      
 E  R4      
 E  R5      
 E  R6      
 E  R7      
 E  R8      
 E  R9      
 E  R10     
 E  R11     
 E  R12     
 E  R13     
 E  R14     
 E  R15     
 E  R16     
 E  R17     
 E  R18     
 E  R19     
 E  R20     
 E  R21     
 E  R22     
 E  R23     
 E  R24     
 E  R25     
 E  R26     
 E  R27     
 E  R28     
 E  R29     
 E  R30     
COLUMNS
    MARKER    'MARKER'                 'INTORG'
    I0(3)     OBJ       1
    I0(3)     R0        150
    I0(3)     R1        12
    I0(3)     R30       1
    I1(3)     OBJ       -140
    I1(3)     R0        -35
    I1(3)     R2        2
    I1(3)     R30       1
    I2(3)     OBJ       154
    I2(3)     R0        69
    I2(3)     R3        18
    I2(3)     R30       1
    I3(3)     OBJ       -108
    I3(3)     R0        -166
    I3(3)     R4        7
    I3(3)     R30       1
    I4(3)     OBJ       -164
    I4(3)     R0        -156
    I4(3)     R5        -1
    I4(3)     R30       1
    I5(3)     OBJ       123
    I5(3)     R0        90
    I5(3)     R6        8
    I5(3)     R30       1
    I6(3)     OBJ       65
    I6(3)     R0        -39
    I6(3)     R7        3
    I6(3)     R30       1
    I7(3)     OBJ       -100
    I7(3)     R0        11
    I7(3)     R8        11
    I7(3)     R30       1
    I8(3)     OBJ       -145
    I8(3)     R0        -52
    I8(3)     R9        7
    I8(3)     R30       1
    I9(3)     OBJ       79
    I9(3)     R0        -189
    I9(3)     R10       19
    I9(3)     R30       1
    I10(3)    OBJ       95
    I10(3)    R0        123
    I10(3)    R11       18
    I10(3)    R30       1
    I11(3)    OBJ       -23
    I11(3)    R0        -40
    I11(3)    R12       15
    I11(3)    R30       1
    I12(3)    OBJ       75
    I12(3)    R0        11
    I12(3)    R13       19
    I12(3)    R30       1
    I13(3)    OBJ       74
    I13(3)    R0        -154
    I13(3)    R14       3
    I13(3)    R30       1
    I14(3)    OBJ       -144
    I14(3)    R0        34
    I14(3)    R15       8
    I14(3)    R30       1
    I15(3)    OBJ       193
    I15(3)    R0        54
    I15(3)    R16       5
    I15(3)    R30       1
    I16(3)    OBJ       37
    I16(3)    R0        -60
    I16(3)    R17       19
    I16(3)    R30       1
    I17(3)    OBJ       113
    I17(3)    R0        -68
    I17(3)    R18       1
    I17(3)    R30       1
    I18(3)    OBJ       -150
    I18(3)    R0        -156
    I18(3)    R19       4
    I18(3)    R30       1
    I19(3)    OBJ       -108
    I19(3)    R0        95
    I19(3)    R20       13
    I19(3)    R30       1
    I20(3)    OBJ       70
    I20(3)    R0        -169
    I20(3)    R21       6
    I20(3)    R30       1
    I21(3)    OBJ       124
    I21(3)    R0        -120
    I21(3)    R22       7
    I21(3)    R30       1
    I22(3)    OBJ       -91
    I22(3)    R0        135
    I22(3)    R23       3
    I22(3)    R30       1
    I23(3)    OBJ       168
    I23(3)    R0        155
    I23(3)    R24       -1
    I23(3)    R30       1
    I24(3)    OBJ       107
    I24(3)    R0        -75
    I24(3)    R25       2
    I24(3)    R30       1
    I25(3)    OBJ       27
    I25(3)    R0        148
    I25(3)    R26       14
    I25(3)    R30       1
    I26(3)    OBJ       -60
    I26(3)    R0        79
    I26(3)    R27       6
    I26(3)    R30       1
    I27(3)    OBJ       -99
    I27(3)    R0        -72
    I27(3)    R28       1
    I27(3)    R30       1
    MARKER    'MARKER'                 'INTEND'
    C28(30)   OBJ       7
    C28(30)   R0        7
    C28(30)   R1        10
    C28(30)   R2        16
    C28(30)   R3        14
    C28(30)   R4        6
    C28(30)   R5        16
    C28(30)   R6        2
    C28(30)   R7        8
    C28(30)   R8        18
    C28(30)   R9        8
    C28(30)   R10       1
    C28(30)   R11       18
    C28(30)   R12       16
    C28(30)   R13       5
    C28(30)   R14       7
    C28(30)   R15       14
    C28(30)   R16       17
    C28(30)   R17       17
    C28(30)   R18       15
    C28(30)   R19       9
    C28(30)   R20       3
    C28(30)   R21       1
    C28(30)   R22       10
    C28(30)   R23       4
    C28(30)   R24       17
    C28(30)   R25       16
    C28(30)   R26       11
    C28(30)   R27       11
    C28(30)   R28       14
    C28(30)   R29       9
    C29(29)   OBJ       -8
    C29(29)   R0        -8
    C29(29)   R1        -1
    C29(29)   R2        7
    C29(29)   R3        18
    C29(29)   R4        3
    C29(29)   R5        2
    C29(29)   R6        15
    C29(29)   R7        13
    C29(29)   R8        4
    C29(29)   R9        13
    C29(29)   R11       6
    C29(29)   R12       11
    C29(29)   R13       14
    C29(29)   R14       12
    C29(29)   R15       5
    C29(29)   R16       5
    C29(29)   R17       5
    C29(29)   R18       4
    C29(29)   R19       -1
    C29(29)   R20       18
    C29(29)   R21       6
    C29(29)   R22       16
    C29(29)   R23       16
    C29(29)   R24       17
    C29(29)   R25       15
    C29(29)   R26       4
    C29(29)   R27       11
    C29(29)   R28       6
    C29(29)   R29       16
    C30(1)    R1        1
    C31(1)    R2        1
    C32(1)    R3        1
    C33(1)    R4        1
    C34(1)    R5        1
    C35(1)    R6        1
    C36(1)    R7        1
    C37(1)    R8        1
    C38(1)    R9        1
    C39(1)    R10       1
    C40(1)    R11       1
    C41(1)    R12       1
    C42(1)    R13       1
    C43(1)    R14       1
    C44(1)    R15       1
    C45(1)    R16       1
    C46(1)    R17       1
    C47(1)    R18       1
    C48(1)    R19       1
    C49(1)    R20       1
    C50(1)    R21       1
    C51(1)    R22       1
    C52(1)    R23       1
    C53(1)    R24       1
    C54(1)    R25       1
    C55(1)    R26       1
    C56(1)    R27       1
    C57(1)    R28       1
    C58(1)    R29       1
    C59(1)    R30       1
RHS
    RHS1      R0        -5.1611111111111109e+02
    RHS1      R1        81
    RHS1      R2        61
    RHS1      R3        61
    RHS1      R4        64
    RHS1      R5        84
    RHS1      R6        73
    RHS1      R7        91
    RHS1      R8        90
    RHS1      R9        61
    RHS1      R10       68
    RHS1      R11       80
    RHS1      R12       70
    RHS1      R13       68
    RHS1      R14       95
    RHS1      R15       61
    RHS1      R16       74
    RHS1      R17       77
    RHS1      R18       95
    RHS1      R19       67
    RHS1      R20       56
    RHS1      R21       81
    RHS1      R22       89
    RHS1      R23       58
    RHS1      R24       91
    RHS1      R25       68
    RHS1      R26       51
    RHS1      R27       88
    RHS1      R28       55
    RHS1      R29       96
    RHS1      R30       9
BOUNDS
 UP BND1      I0(3)     1
 UP BND1      I1(3)     1
 UP BND1      I2(3)     1
 UP BND1      I3(3)     1
 UP BND1      I4(3)     1
 UP BND1      I5(3)     1
 UP BND1      I6(3)     1
 UP BND1      I7(3)     1
 UP BND1      I8(3)     1
 UP BND1      I9(3)     1
 UP BND1      I10(3)    1
 UP BND1      I11(3)    1
 UP BND1      I12(3)    1
 UP BND1      I13(3)    1
 UP BND1      I14(3)    1
 UP BND1      I15(3)    1
 UP BND1      I16(3)    1
 UP BND1      I17(3)    1
 UP BND1      I18(3)    1
 UP BND1      I19(3)    1
 UP BND1      I20(3)    1
 UP BND1      I21(3)    1
 UP BND1      I22(3)    1
 UP BND1      I23(3)    1
 UP BND1      I24(3)    1
 UP BND1      I25(3)    1
 UP BND1      I26(3)    1
 UP BND1      I27(3)    1
ENDATA
